65
1 0 1
2 0 10
2 1 9
3 0 7
3 1 1
3 2 7
4 0 2
4 1 7
4 2 9
4 3 9
5 0 7
5 1 6
5 2 3
5 3 4
5 4 9
6 0 7
6 1 9
6 2 7
6 3 8
6 4 5
6 5 6
7 0 8
7 1 2
7 2 6
7 3 9
7 4 2
7 5 5
7 6 9
8 0 7
8 1 9
8 2 9
8 3 4
8 4 10
8 5 6
8 6 7
8 7 5
9 0 4
9 1 9
9 2 7
9 3 4
9 4 2
9 5 5
9 6 8
9 7 10
9 8 7
10 0 10
10 1 4
10 2 7
10 3 6
10 4 7
10 5 3
10 6 2
10 7 6
10 8 10
10 9 3
11 0 1
11 1 1
11 2 6
11 3 5
11 4 1
11 5 5
11 6 1
11 7 8
11 8 7
11 9 10
11 10 4
12 0 2
12 1 6
12 2 2
12 3 9
12 4 8
12 5 2
12 6 6
12 7 6
12 8 7
12 9 4
12 10 6
12 11 10
13 0 7
13 1 10
13 2 4
13 3 5
13 4 5
13 5 6
13 6 4
13 7 1
13 8 8
13 9 7
13 10 3
13 11 5
13 12 5
14 0 3
14 1 10
14 2 3
14 3 9
14 4 4
14 5 4
14 6 8
14 7 9
14 8 3
14 9 8
14 10 2
14 11 10
14 12 5
14 13 8
15 0 4
15 1 1
15 2 2
15 3 7
15 4 8
15 5 4
15 6 10
15 7 8
15 8 3
15 9 2
15 10 1
15 11 7
15 12 2
15 13 5
15 14 7
16 0 1
16 1 2
16 2 9
16 3 7
16 4 6
16 5 7
16 6 7
16 7 10
16 8 8
16 9 4
16 10 3
16 11 4
16 12 4
16 13 9
16 14 2
16 15 6
17 0 3
17 1 10
17 2 8
17 3 9
17 4 7
17 5 5
17 6 4
17 7 10
17 8 6
17 9 8
17 10 8
17 11 1
17 12 8
17 13 5
17 14 1
17 15 9
17 16 10
18 0 9
18 1 9
18 2 5
18 3 1
18 4 4
18 5 10
18 6 4
18 7 6
18 8 1
18 9 1
18 10 8
18 11 7
18 12 10
18 13 9
18 14 10
18 15 2
18 16 5
18 17 8
19 0 5
19 1 10
19 2 9
19 3 3
19 4 6
19 5 8
19 6 9
19 7 2
19 8 9
19 9 8
19 10 10
19 11 1
19 12 9
19 13 10
19 14 1
19 15 1
19 16 5
19 17 3
19 18 1
20 0 9
20 1 4
20 2 8
20 3 5
20 4 9
20 5 6
20 6 1
20 7 5
20 8 8
20 9 4
20 10 1
20 11 10
20 12 7
20 13 2
20 14 9
20 15 8
20 16 9
20 17 10
20 18 10
20 19 9
21 0 8
21 1 6
21 2 7
21 3 6
21 4 10
21 5 7
21 6 6
21 7 3
21 8 6
21 9 2
21 10 6
21 11 2
21 12 10
21 13 1
21 14 3
21 15 3
21 16 6
21 17 6
21 18 2
21 19 5
21 20 10
22 0 8
22 1 1
22 2 10
22 3 6
22 4 4
22 5 4
22 6 6
22 7 4
22 8 4
22 9 5
22 10 7
22 11 4
22 12 1
22 13 8
22 14 4
22 15 10
22 16 5
22 17 5
22 18 1
22 19 8
22 20 1
22 21 4
23 0 5
23 1 9
23 2 5
23 3 6
23 4 8
23 5 3
23 6 10
23 7 1
23 8 8
23 9 6
23 10 5
23 11 5
23 12 1
23 13 8
23 14 2
23 15 8
23 16 8
23 17 1
23 18 5
23 19 1
23 20 9
23 21 2
23 22 7
24 0 8
24 1 7
24 2 9
24 3 2
24 4 10
24 5 7
24 6 4
24 7 1
24 8 9
24 9 3
24 10 6
24 11 4
24 12 7
24 13 4
24 14 4
24 15 5
24 16 2
24 17 1
24 18 3
24 19 3
24 20 10
24 21 9
24 22 7
24 23 10
25 0 4
25 1 9
25 2 2
25 3 8
25 4 3
25 5 4
25 6 2
25 7 5
25 8 3
25 9 6
25 10 1
25 11 4
25 12 3
25 13 3
25 14 3
25 15 3
25 16 5
25 17 1
25 18 8
25 19 8
25 20 10
25 21 6
25 22 5
25 23 6
25 24 1
26 0 8
26 1 10
26 2 5
26 3 4
26 4 1
26 5 1
26 6 8
26 7 3
26 8 7
26 9 2
26 10 1
26 11 5
26 12 3
26 13 10
26 14 8
26 15 4
26 16 2
26 17 3
26 18 2
26 19 1
26 20 5
26 21 2
26 22 5
26 23 4
26 24 9
26 25 3
27 0 10
27 1 1
27 2 8
27 3 2
27 4 5
27 5 2
27 6 6
27 7 3
27 8 6
27 9 4
27 10 2
27 11 6
27 12 6
27 13 3
27 14 7
27 15 3
27 16 8
27 17 1
27 18 1
27 19 7
27 20 5
27 21 10
27 22 3
27 23 7
27 24 7
27 25 5
27 26 8
28 0 2
28 1 9
28 2 5
28 3 3
28 4 8
28 5 1
28 6 2
28 7 7
28 8 1
28 9 9
28 10 2
28 11 10
28 12 1
28 13 4
28 14 9
28 15 4
28 16 8
28 17 6
28 18 2
28 19 2
28 20 4
28 21 6
28 22 9
28 23 4
28 24 7
28 25 5
28 26 10
28 27 4
29 0 8
29 1 8
29 2 2
29 3 10
29 4 10
29 5 1
29 6 3
29 7 6
29 8 6
29 9 7
29 10 2
29 11 4
29 12 5
29 13 10
29 14 3
29 15 7
29 16 3
29 17 9
29 18 5
29 19 8
29 20 10
29 21 1
29 22 1
29 23 4
29 24 2
29 25 5
29 26 5
29 27 9
29 28 9
30 0 1
30 1 10
30 2 6
30 3 1
30 4 1
30 5 10
30 6 3
30 7 1
30 8 9
30 9 10
30 10 4
30 11 8
30 12 9
30 13 4
30 14 10
30 15 6
30 16 3
30 17 10
30 18 7
30 19 1
30 20 10
30 21 8
30 22 8
30 23 5
30 24 4
30 25 9
30 26 10
30 27 1
30 28 2
30 29 8
31 0 10
31 1 2
31 2 3
31 3 7
31 4 4
31 5 4
31 6 3
31 7 3
31 8 2
31 9 7
31 10 4
31 11 1
31 12 6
31 13 8
31 14 9
31 15 9
31 16 1
31 17 2
31 18 5
31 19 10
31 20 2
31 21 6
31 22 6
31 23 7
31 24 7
31 25 9
31 26 4
31 27 5
31 28 5
31 29 9
31 30 2
32 0 4
32 1 1
32 2 9
32 3 6
32 4 8
32 5 10
32 6 3
32 7 5
32 8 2
32 9 4
32 10 7
32 11 6
32 12 7
32 13 6
32 14 8
32 15 5
32 16 6
32 17 1
32 18 7
32 19 8
32 20 10
32 21 7
32 22 1
32 23 5
32 24 10
32 25 7
32 26 8
32 27 3
32 28 7
32 29 4
32 30 7
32 31 1
33 0 9
33 1 5
33 2 9
33 3 9
33 4 3
33 5 5
33 6 4
33 7 3
33 8 2
33 9 7
33 10 4
33 11 5
33 12 8
33 13 7
33 14 10
33 15 4
33 16 3
33 17 5
33 18 10
33 19 10
33 20 8
33 21 4
33 22 5
33 23 2
33 24 9
33 25 8
33 26 8
33 27 4
33 28 9
33 29 1
33 30 1
33 31 1
33 32 3
34 0 9
34 1 6
34 2 1
34 3 1
34 4 5
34 5 10
34 6 10
34 7 4
34 8 1
34 9 6
34 10 1
34 11 1
34 12 5
34 13 2
34 14 4
34 15 4
34 16 6
34 17 4
34 18 2
34 19 9
34 20 7
34 21 4
34 22 7
34 23 1
34 24 8
34 25 1
34 26 1
34 27 2
34 28 8
34 29 9
34 30 6
34 31 8
34 32 7
34 33 5
35 0 7
35 1 8
35 2 5
35 3 1
35 4 1
35 5 1
35 6 1
35 7 2
35 8 2
35 9 9
35 10 2
35 11 2
35 12 4
35 13 9
35 14 4
35 15 5
35 16 4
35 17 1
35 18 4
35 19 3
35 20 10
35 21 3
35 22 9
35 23 1
35 24 7
35 25 3
35 26 2
35 27 9
35 28 2
35 29 4
35 30 9
35 31 8
35 32 9
35 33 10
35 34 3
36 0 5
36 1 2
36 2 1
36 3 5
36 4 7
36 5 10
36 6 8
36 7 3
36 8 10
36 9 10
36 10 2
36 11 7
36 12 9
36 13 3
36 14 2
36 15 7
36 16 1
36 17 1
36 18 8
36 19 3
36 20 6
36 21 6
36 22 2
36 23 9
36 24 1
36 25 5
36 26 2
36 27 6
36 28 3
36 29 3
36 30 8
36 31 3
36 32 3
36 33 5
36 34 10
36 35 5
37 0 4
37 1 7
37 2 2
37 3 9
37 4 3
37 5 7
37 6 3
37 7 10
37 8 6
37 9 2
37 10 5
37 11 8
37 12 1
37 13 7
37 14 7
37 15 10
37 16 10
37 17 8
37 18 5
37 19 5
37 20 4
37 21 10
37 22 1
37 23 4
37 24 2
37 25 10
37 26 10
37 27 2
37 28 1
37 29 10
37 30 10
37 31 1
37 32 6
37 33 7
37 34 4
37 35 7
37 36 1
38 0 6
38 1 4
38 2 8
38 3 4
38 4 2
38 5 1
38 6 8
38 7 3
38 8 5
38 9 4
38 10 10
38 11 2
38 12 2
38 13 9
38 14 6
38 15 5
38 16 4
38 17 8
38 18 10
38 19 7
38 20 3
38 21 7
38 22 9
38 23 8
38 24 6
38 25 6
38 26 6
38 27 10
38 28 10
38 29 2
38 30 10
38 31 1
38 32 4
38 33 7
38 34 6
38 35 1
38 36 9
38 37 9
39 0 10
39 1 5
39 2 8
39 3 10
39 4 10
39 5 7
39 6 2
39 7 2
39 8 5
39 9 9
39 10 9
39 11 6
39 12 3
39 13 7
39 14 9
39 15 7
39 16 4
39 17 6
39 18 4
39 19 9
39 20 3
39 21 5
39 22 9
39 23 2
39 24 10
39 25 4
39 26 4
39 27 8
39 28 8
39 29 4
39 30 2
39 31 10
39 32 4
39 33 1
39 34 5
39 35 6
39 36 1
39 37 8
39 38 7
40 0 4
40 1 3
40 2 7
40 3 5
40 4 4
40 5 10
40 6 10
40 7 3
40 8 9
40 9 9
40 10 9
40 11 1
40 12 1
40 13 3
40 14 3
40 15 9
40 16 6
40 17 6
40 18 10
40 19 1
40 20 1
40 21 3
40 22 5
40 23 3
40 24 10
40 25 9
40 26 5
40 27 10
40 28 8
40 29 5
40 30 6
40 31 2
40 32 4
40 33 6
40 34 6
40 35 8
40 36 5
40 37 1
40 38 9
40 39 4
41 0 4
41 1 4
41 2 8
41 3 10
41 4 7
41 5 2
41 6 10
41 7 4
41 8 8
41 9 8
41 10 5
41 11 6
41 12 2
41 13 7
41 14 5
41 15 10
41 16 3
41 17 8
41 18 8
41 19 2
41 20 3
41 21 3
41 22 9
41 23 2
41 24 1
41 25 5
41 26 9
41 27 9
41 28 6
41 29 8
41 30 5
41 31 8
41 32 5
41 33 9
41 34 8
41 35 4
41 36 4
41 37 6
41 38 7
41 39 4
41 40 7
42 0 1
42 1 7
42 2 8
42 3 3
42 4 2
42 5 8
42 6 7
42 7 7
42 8 3
42 9 4
42 10 1
42 11 8
42 12 3
42 13 8
42 14 8
42 15 2
42 16 8
42 17 1
42 18 3
42 19 8
42 20 7
42 21 2
42 22 1
42 23 5
42 24 2
42 25 1
42 26 6
42 27 6
42 28 6
42 29 2
42 30 2
42 31 4
42 32 6
42 33 8
42 34 2
42 35 2
42 36 2
42 37 5
42 38 3
42 39 7
42 40 8
42 41 3
43 0 2
43 1 9
43 2 6
43 3 9
43 4 1
43 5 8
43 6 1
43 7 1
43 8 10
43 9 2
43 10 6
43 11 1
43 12 5
43 13 5
43 14 6
43 15 4
43 16 8
43 17 10
43 18 8
43 19 5
43 20 5
43 21 3
43 22 3
43 23 4
43 24 10
43 25 8
43 26 8
43 27 9
43 28 3
43 29 10
43 30 3
43 31 3
43 32 8
43 33 4
43 34 4
43 35 2
43 36 3
43 37 1
43 38 9
43 39 9
43 40 9
43 41 2
43 42 9
44 0 3
44 1 9
44 2 6
44 3 2
44 4 4
44 5 2
44 6 8
44 7 10
44 8 10
44 9 4
44 10 5
44 11 2
44 12 10
44 13 4
44 14 1
44 15 10
44 16 5
44 17 4
44 18 6
44 19 9
44 20 8
44 21 7
44 22 4
44 23 8
44 24 10
44 25 4
44 26 4
44 27 3
44 28 8
44 29 3
44 30 10
44 31 6
44 32 2
44 33 8
44 34 6
44 35 4
44 36 4
44 37 5
44 38 1
44 39 6
44 40 2
44 41 7
44 42 5
44 43 8
45 0 3
45 1 5
45 2 9
45 3 10
45 4 2
45 5 8
45 6 8
45 7 1
45 8 7
45 9 1
45 10 1
45 11 3
45 12 5
45 13 5
45 14 5
45 15 7
45 16 8
45 17 5
45 18 9
45 19 10
45 20 4
45 21 2
45 22 9
45 23 2
45 24 9
45 25 3
45 26 7
45 27 9
45 28 8
45 29 10
45 30 4
45 31 10
45 32 10
45 33 2
45 34 10
45 35 4
45 36 6
45 37 6
45 38 10
45 39 3
45 40 4
45 41 6
45 42 9
45 43 9
45 44 2
46 0 3
46 1 7
46 2 4
46 3 1
46 4 8
46 5 8
46 6 5
46 7 5
46 8 4
46 9 6
46 10 7
46 11 9
46 12 5
46 13 7
46 14 4
46 15 2
46 16 2
46 17 1
46 18 7
46 19 5
46 20 8
46 21 8
46 22 2
46 23 8
46 24 1
46 25 4
46 26 1
46 27 6
46 28 10
46 29 1
46 30 8
46 31 3
46 32 3
46 33 5
46 34 7
46 35 5
46 36 10
46 37 6
46 38 8
46 39 10
46 40 1
46 41 9
46 42 4
46 43 9
46 44 7
46 45 8
47 0 8
47 1 2
47 2 5
47 3 3
47 4 8
47 5 2
47 6 5
47 7 7
47 8 7
47 9 2
47 10 6
47 11 3
47 12 9
47 13 2
47 14 1
47 15 9
47 16 5
47 17 2
47 18 4
47 19 3
47 20 2
47 21 7
47 22 2
47 23 5
47 24 7
47 25 3
47 26 10
47 27 8
47 28 8
47 29 4
47 30 6
47 31 1
47 32 6
47 33 1
47 34 6
47 35 2
47 36 5
47 37 10
47 38 7
47 39 2
47 40 8
47 41 6
47 42 2
47 43 9
47 44 9
47 45 3
47 46 3
48 0 5
48 1 5
48 2 8
48 3 3
48 4 8
48 5 9
48 6 10
48 7 8
48 8 4
48 9 8
48 10 3
48 11 10
48 12 3
48 13 4
48 14 10
48 15 4
48 16 9
48 17 9
48 18 9
48 19 2
48 20 4
48 21 4
48 22 3
48 23 3
48 24 8
48 25 2
48 26 9
48 27 10
48 28 8
48 29 1
48 30 1
48 31 3
48 32 6
48 33 6
48 34 7
48 35 8
48 36 5
48 37 7
48 38 1
48 39 9
48 40 8
48 41 8
48 42 10
48 43 10
48 44 6
48 45 9
48 46 3
48 47 3
49 0 5
49 1 9
49 2 3
49 3 4
49 4 2
49 5 2
49 6 4
49 7 3
49 8 9
49 9 9
49 10 10
49 11 7
49 12 6
49 13 2
49 14 8
49 15 2
49 16 6
49 17 2
49 18 2
49 19 2
49 20 9
49 21 5
49 22 3
49 23 9
49 24 2
49 25 1
49 26 6
49 27 9
49 28 2
49 29 3
49 30 1
49 31 8
49 32 7
49 33 2
49 34 7
49 35 8
49 36 10
49 37 3
49 38 5
49 39 2
49 40 7
49 41 7
49 42 2
49 43 3
49 44 2
49 45 2
49 46 4
49 47 6
49 48 3
50 0 8
50 1 10
50 2 8
50 3 1
50 4 2
50 5 1
50 6 10
50 7 6
50 8 6
50 9 8
50 10 2
50 11 2
50 12 10
50 13 6
50 14 10
50 15 8
50 16 2
50 17 6
50 18 6
50 19 3
50 20 7
50 21 5
50 22 4
50 23 1
50 24 7
50 25 3
50 26 10
50 27 10
50 28 8
50 29 6
50 30 9
50 31 1
50 32 4
50 33 3
50 34 4
50 35 9
50 36 3
50 37 5
50 38 3
50 39 1
50 40 3
50 41 8
50 42 3
50 43 10
50 44 5
50 45 1
50 46 5
50 47 2
50 48 3
50 49 2
51 0 10
51 1 1
51 2 5
51 3 2
51 4 2
51 5 6
51 6 2
51 7 2
51 8 7
51 9 7
51 10 9
51 11 9
51 12 10
51 13 8
51 14 10
51 15 4
51 16 3
51 17 9
51 18 2
51 19 4
51 20 3
51 21 8
51 22 10
51 23 1
51 24 1
51 25 5
51 26 3
51 27 4
51 28 1
51 29 2
51 30 7
51 31 6
51 32 8
51 33 10
51 34 9
51 35 8
51 36 10
51 37 2
51 38 9
51 39 2
51 40 1
51 41 4
51 42 8
51 43 5
51 44 6
51 45 1
51 46 7
51 47 10
51 48 2
51 49 8
51 50 8
52 0 9
52 1 4
52 2 9
52 3 6
52 4 1
52 5 1
52 6 5
52 7 9
52 8 7
52 9 6
52 10 6
52 11 6
52 12 4
52 13 6
52 14 8
52 15 8
52 16 2
52 17 10
52 18 3
52 19 4
52 20 8
52 21 9
52 22 2
52 23 8
52 24 9
52 25 2
52 26 2
52 27 7
52 28 8
52 29 3
52 30 10
52 31 7
52 32 1
52 33 3
52 34 3
52 35 8
52 36 7
52 37 3
52 38 3
52 39 6
52 40 8
52 41 5
52 42 9
52 43 6
52 44 10
52 45 3
52 46 1
52 47 7
52 48 6
52 49 8
52 50 8
52 51 4
53 0 3
53 1 2
53 2 4
53 3 4
53 4 10
53 5 4
53 6 2
53 7 8
53 8 6
53 9 9
53 10 2
53 11 5
53 12 9
53 13 4
53 14 9
53 15 10
53 16 5
53 17 9
53 18 7
53 19 7
53 20 10
53 21 5
53 22 1
53 23 1
53 24 10
53 25 7
53 26 2
53 27 9
53 28 7
53 29 1
53 30 7
53 31 7
53 32 3
53 33 7
53 34 2
53 35 10
53 36 1
53 37 5
53 38 3
53 39 8
53 40 1
53 41 5
53 42 9
53 43 7
53 44 1
53 45 1
53 46 10
53 47 1
53 48 1
53 49 4
53 50 2
53 51 8
53 52 5
54 0 10
54 1 6
54 2 8
54 3 7
54 4 1
54 5 1
54 6 2
54 7 2
54 8 7
54 9 1
54 10 6
54 11 9
54 12 6
54 13 6
54 14 10
54 15 9
54 16 9
54 17 2
54 18 1
54 19 7
54 20 5
54 21 2
54 22 5
54 23 10
54 24 3
54 25 9
54 26 8
54 27 8
54 28 6
54 29 2
54 30 6
54 31 1
54 32 8
54 33 1
54 34 9
54 35 2
54 36 2
54 37 4
54 38 9
54 39 3
54 40 3
54 41 1
54 42 6
54 43 1
54 44 5
54 45 7
54 46 3
54 47 8
54 48 4
54 49 8
54 50 7
54 51 8
54 52 6
54 53 10
55 0 7
55 1 8
55 2 7
55 3 9
55 4 1
55 5 9
55 6 2
55 7 7
55 8 7
55 9 3
55 10 5
55 11 6
55 12 7
55 13 4
55 14 7
55 15 9
55 16 4
55 17 7
55 18 3
55 19 10
55 20 3
55 21 7
55 22 1
55 23 8
55 24 9
55 25 6
55 26 5
55 27 6
55 28 2
55 29 2
55 30 1
55 31 1
55 32 7
55 33 8
55 34 6
55 35 2
55 36 2
55 37 10
55 38 8
55 39 7
55 40 6
55 41 9
55 42 4
55 43 2
55 44 1
55 45 7
55 46 4
55 47 1
55 48 6
55 49 8
55 50 10
55 51 8
55 52 3
55 53 8
55 54 4
56 0 3
56 1 2
56 2 9
56 3 4
56 4 4
56 5 4
56 6 4
56 7 1
56 8 1
56 9 3
56 10 2
56 11 5
56 12 10
56 13 9
56 14 3
56 15 1
56 16 2
56 17 9
56 18 2
56 19 4
56 20 10
56 21 7
56 22 10
56 23 2
56 24 7
56 25 4
56 26 2
56 27 3
56 28 3
56 29 3
56 30 3
56 31 4
56 32 8
56 33 10
56 34 1
56 35 5
56 36 7
56 37 6
56 38 2
56 39 5
56 40 4
56 41 9
56 42 10
56 43 6
56 44 7
56 45 8
56 46 6
56 47 5
56 48 2
56 49 4
56 50 8
56 51 6
56 52 1
56 53 4
56 54 8
56 55 7
57 0 5
57 1 10
57 2 6
57 3 7
57 4 9
57 5 9
57 6 2
57 7 3
57 8 3
57 9 7
57 10 4
57 11 4
57 12 6
57 13 2
57 14 9
57 15 6
57 16 10
57 17 8
57 18 9
57 19 10
57 20 1
57 21 9
57 22 9
57 23 9
57 24 7
57 25 10
57 26 5
57 27 9
57 28 4
57 29 8
57 30 5
57 31 4
57 32 4
57 33 2
57 34 3
57 35 2
57 36 6
57 37 2
57 38 10
57 39 9
57 40 3
57 41 1
57 42 6
57 43 6
57 44 1
57 45 7
57 46 2
57 47 4
57 48 6
57 49 6
57 50 5
57 51 3
57 52 8
57 53 9
57 54 5
57 55 2
57 56 2
58 0 8
58 1 1
58 2 1
58 3 6
58 4 5
58 5 2
58 6 5
58 7 4
58 8 1
58 9 4
58 10 9
58 11 10
58 12 3
58 13 2
58 14 10
58 15 4
58 16 8
58 17 2
58 18 8
58 19 6
58 20 8
58 21 6
58 22 2
58 23 10
58 24 2
58 25 4
58 26 9
58 27 4
58 28 6
58 29 7
58 30 2
58 31 2
58 32 5
58 33 7
58 34 3
58 35 1
58 36 7
58 37 9
58 38 9
58 39 2
58 40 1
58 41 9
58 42 6
58 43 10
58 44 6
58 45 6
58 46 9
58 47 4
58 48 1
58 49 10
58 50 3
58 51 8
58 52 10
58 53 10
58 54 5
58 55 8
58 56 2
58 57 2
59 0 3
59 1 3
59 2 3
59 3 1
59 4 8
59 5 5
59 6 1
59 7 8
59 8 7
59 9 7
59 10 4
59 11 5
59 12 6
59 13 6
59 14 9
59 15 10
59 16 9
59 17 8
59 18 3
59 19 10
59 20 8
59 21 1
59 22 9
59 23 3
59 24 6
59 25 1
59 26 7
59 27 1
59 28 2
59 29 4
59 30 2
59 31 3
59 32 10
59 33 8
59 34 4
59 35 2
59 36 7
59 37 5
59 38 8
59 39 4
59 40 5
59 41 10
59 42 9
59 43 1
59 44 6
59 45 8
59 46 2
59 47 5
59 48 9
59 49 8
59 50 7
59 51 9
59 52 1
59 53 2
59 54 3
59 55 7
59 56 5
59 57 1
59 58 10
60 0 6
60 1 2
60 2 8
60 3 6
60 4 1
60 5 1
60 6 7
60 7 4
60 8 2
60 9 10
60 10 1
60 11 10
60 12 7
60 13 7
60 14 7
60 15 2
60 16 6
60 17 6
60 18 9
60 19 5
60 20 9
60 21 1
60 22 6
60 23 5
60 24 8
60 25 9
60 26 2
60 27 10
60 28 8
60 29 6
60 30 10
60 31 5
60 32 10
60 33 6
60 34 9
60 35 6
60 36 3
60 37 5
60 38 4
60 39 9
60 40 2
60 41 9
60 42 3
60 43 2
60 44 8
60 45 3
60 46 8
60 47 5
60 48 4
60 49 2
60 50 3
60 51 7
60 52 5
60 53 6
60 54 6
60 55 8
60 56 9
60 57 4
60 58 6
60 59 9
61 0 4
61 1 8
61 2 9
61 3 9
61 4 5
61 5 10
61 6 3
61 7 9
61 8 4
61 9 6
61 10 9
61 11 4
61 12 10
61 13 7
61 14 5
61 15 8
61 16 2
61 17 7
61 18 6
61 19 4
61 20 8
61 21 5
61 22 10
61 23 1
61 24 9
61 25 8
61 26 4
61 27 5
61 28 10
61 29 3
61 30 4
61 31 1
61 32 5
61 33 7
61 34 6
61 35 6
61 36 9
61 37 4
61 38 10
61 39 7
61 40 4
61 41 6
61 42 3
61 43 10
61 44 10
61 45 6
61 46 1
61 47 10
61 48 1
61 49 2
61 50 6
61 51 4
61 52 8
61 53 10
61 54 4
61 55 8
61 56 2
61 57 10
61 58 2
61 59 8
61 60 6
62 0 10
62 1 1
62 2 5
62 3 6
62 4 10
62 5 3
62 6 1
62 7 4
62 8 1
62 9 5
62 10 6
62 11 6
62 12 7
62 13 3
62 14 8
62 15 1
62 16 6
62 17 4
62 18 9
62 19 6
62 20 4
62 21 1
62 22 5
62 23 4
62 24 2
62 25 8
62 26 7
62 27 10
62 28 10
62 29 1
62 30 5
62 31 5
62 32 6
62 33 7
62 34 4
62 35 3
62 36 7
62 37 7
62 38 7
62 39 8
62 40 3
62 41 10
62 42 7
62 43 4
62 44 8
62 45 5
62 46 4
62 47 4
62 48 3
62 49 10
62 50 2
62 51 6
62 52 6
62 53 4
62 54 3
62 55 4
62 56 1
62 57 10
62 58 10
62 59 8
62 60 4
62 61 8
63 0 7
63 1 8
63 2 4
63 3 7
63 4 6
63 5 9
63 6 10
63 7 9
63 8 1
63 9 2
63 10 6
63 11 3
63 12 3
63 13 8
63 14 7
63 15 9
63 16 9
63 17 7
63 18 5
63 19 10
63 20 3
63 21 8
63 22 2
63 23 6
63 24 5
63 25 8
63 26 8
63 27 8
63 28 5
63 29 7
63 30 10
63 31 4
63 32 8
63 33 9
63 34 3
63 35 8
63 36 1
63 37 3
63 38 1
63 39 4
63 40 9
63 41 8
63 42 2
63 43 9
63 44 6
63 45 6
63 46 7
63 47 2
63 48 10
63 49 6
63 50 9
63 51 3
63 52 10
63 53 2
63 54 9
63 55 6
63 56 5
63 57 7
63 58 10
63 59 9
63 60 4
63 61 4
63 62 10
64 0 7
64 1 1
64 2 6
64 3 3
64 4 10
64 5 1
64 6 8
64 7 9
64 8 6
64 9 1
64 10 2
64 11 6
64 12 4
64 13 1
64 14 7
64 15 8
64 16 2
64 17 6
64 18 10
64 19 1
64 20 6
64 21 4
64 22 5
64 23 5
64 24 9
64 25 5
64 26 3
64 27 7
64 28 7
64 29 8
64 30 8
64 31 9
64 32 6
64 33 3
64 34 4
64 35 6
64 36 1
64 37 9
64 38 3
64 39 5
64 40 3
64 41 10
64 42 8
64 43 5
64 44 1
64 45 2
64 46 10
64 47 2
64 48 4
64 49 9
64 50 10
64 51 9
64 52 10
64 53 2
64 54 7
64 55 9
64 56 5
64 57 1
64 58 8
64 59 8
64 60 8
64 61 5
64 62 7
64 63 2
